Gurobi Optimizer version 9.1.2 build v9.1.2rc0 (linux64)
Thread count: 36 physical cores, 72 logical processors, using up to 32 threads
Optimize a model with 12 rows, 57 columns and 590 nonzeros
Model fingerprint: 0xf32eec78
Model has 47 quadratic constraints
Coefficient statistics:
  Matrix range     [2e-05, 3e+00]
  QMatrix range    [1e+00, 1e+00]
  QLMatrix range   [1e+00, 1e+00]
  Objective range  [8e-03, 7e-01]
  Bounds range     [1e+00, 1e+00]
  RHS range        [1e+00, 1e+00]
Presolve removed 9 rows and 0 columns

Continuous model is non-convex -- solving as a MIP.

Presolve removed 9 rows and 0 columns
Presolve time: 0.00s
Presolved: 189 rows, 57 columns, 443 nonzeros
Presolved model has 47 bilinear constraint(s)
Variable types: 57 continuous, 0 integer (0 binary)

Root relaxation: objective -1.743721e+00, 44 iterations, 0.00 seconds

    Nodes    |    Current Node    |     Objective Bounds      |     Work
 Expl Unexpl |  Obj  Depth IntInf | Incumbent    BestBd   Gap | It/Node Time

     0     0   -1.74372    0   38          -   -1.74372      -     -    0s
H    0     0                       0.6147548   -1.74372   384%     -    0s
     0     0   -1.64739    0    1    0.61475   -1.64739   368%     -    0s
H    0     0                      -1.6450460   -1.64739  0.14%     -    0s
     0     0     cutoff    0        -1.64505   -1.64505  0.00%     -    0s

Cutting planes:
  RLT: 25
  BQP: 3

Explored 1 nodes (76 simplex iterations) in 0.01 seconds
Thread count was 32 (of 72 available processors)

Solution count 2: -1.64505 0.614755 
No other solutions better than -1.64505

Optimal solution found (tolerance 1.00e-04)
Best objective -1.645045978473e+00, best bound -1.645045978473e+00, gap 0.0000%

User-callback calls 78, time in user-callback 0.00 sec
Gurobi Optimizer version 9.1.2 build v9.1.2rc0 (linux64)
Thread count: 36 physical cores, 72 logical processors, using up to 32 threads
Optimize a model with 60 rows, 300 columns and 15500 nonzeros
Model fingerprint: 0xad6ff103
Model has 250 quadratic constraints
Coefficient statistics:
  Matrix range     [1e-06, 4e+00]
  QMatrix range    [1e+00, 1e+00]
  QLMatrix range   [1e+00, 1e+00]
  Objective range  [2e-04, 1e+00]
  Bounds range     [1e+00, 1e+00]
  RHS range        [1e+00, 1e+00]
Presolve removed 12 rows and 0 columns

Continuous model is non-convex -- solving as a MIP.

Presolve removed 12 rows and 0 columns
Presolve time: 0.01s
Presolved: 1048 rows, 300 columns, 13862 nonzeros
Presolved model has 250 bilinear constraint(s)
Variable types: 300 continuous, 0 integer (0 binary)

Root relaxation: objective -2.897417e+01, 349 iterations, 0.02 seconds

    Nodes    |    Current Node    |     Objective Bounds      |     Work
 Expl Unexpl |  Obj  Depth IntInf | Incumbent    BestBd   Gap | It/Node Time

     0     0  -28.97417    0  195          -  -28.97417      -     -    0s
H    0     0                      -9.7251930  -28.97417   198%     -    0s
     0     0  -27.12975    0  151   -9.72519  -27.12975   179%     -    0s
H    0     0                     -15.6803934  -27.12975  73.0%     -    0s
     0     0  -26.78557    0  157  -15.68039  -26.78557  70.8%     -    0s
     0     0  -26.77841    0  157  -15.68039  -26.77841  70.8%     -    0s
     0     0  -26.74220    0  133  -15.68039  -26.74220  70.5%     -    0s
     0     2  -26.74220    0  133  -15.68039  -26.74220  70.5%     -    0s
* 2107  1899              61     -24.0451898  -25.64444  6.65%  42.5    1s
* 2110  1899              62     -24.0451922  -25.64444  6.65%  42.5    1s
* 2454  1780             116     -24.1419876  -25.46637  5.49%  40.8    1s
* 2766  1969              61     -24.4124099  -25.46637  4.32%  43.3    1s
* 4445   820              57     -24.4198032  -25.46637  4.29%  52.8    3s
* 4447   779              58     -24.4198033  -25.46637  4.29%  52.8    3s
* 4657   783              62     -24.4204862  -25.46637  4.28%  52.3    3s
* 4658   747              62     -24.4205059  -25.46637  4.28%  52.3    3s
* 4788   766              63     -24.4207951  -25.46637  4.28%  51.9    3s
* 4789   732              62     -24.4208191  -25.46637  4.28%  51.9    3s
* 4959   819              68     -24.5593455  -25.46637  3.69%  51.2    3s
* 5234   921              86     -24.5620700  -25.46637  3.68%  50.5    3s
* 5376   980              86     -24.5621336  -25.46637  3.68%  50.2    3s
* 5385   980              88     -24.5622480  -25.46637  3.68%  50.1    3s
* 5456   980             103     -24.6273204  -25.46637  3.41%  49.9    3s
* 6022  1279              70     -24.6274818  -25.46637  3.41%  49.7    4s
* 6023  1279              70     -24.6274893  -25.46637  3.41%  49.7    4s
* 6026  1279              71     -24.6277968  -25.46637  3.40%  49.6    4s
* 6121  1279              67     -24.6284671  -25.46637  3.40%  49.8    4s
* 6123  1279              68     -24.6285082  -25.46637  3.40%  49.7    4s
* 6124  1279              68     -24.6285090  -25.46637  3.40%  49.7    4s
* 6126  1279              67     -24.6285530  -25.46637  3.40%  49.7    4s
* 6127  1279              67     -24.6285542  -25.46637  3.40%  49.7    4s
* 6199  1279              79     -24.6325743  -25.46637  3.38%  49.4    4s
* 6356  1342              81     -24.6325752  -25.46637  3.38%  49.4    4s
* 6681  1565              98     -24.6436910  -25.46637  3.34%  49.1    4s
* 6683  1565              99     -24.6436960  -25.46637  3.34%  49.1    4s
* 6685  1565             100     -24.6436963  -25.46637  3.34%  49.1    4s
* 6686  1565             100     -24.6436965  -25.46637  3.34%  49.1    4s
* 6687  1565              97     -24.6437065  -25.46637  3.34%  49.1    4s
* 7131  1880              68     -24.6476742  -25.46637  3.32%  48.0    4s
* 7134  1880              68     -24.6476813  -25.46637  3.32%  48.0    4s
* 7139  1880              69     -24.6477064  -25.46637  3.32%  48.0    4s
* 7602  1979              79     -24.6535540  -25.46637  3.30%  46.7    4s
* 7605  1979              81     -24.6535560  -25.46637  3.30%  46.7    4s
* 8032  1963              67     -24.6542181  -25.46637  3.29%  45.3    4s
* 8035  1963              67     -24.6542193  -25.46637  3.29%  45.3    4s
* 8130  1963              76     -24.7938241  -25.46637  2.71%  45.0    4s
* 8668  1989              64     -24.9460194  -25.37196  1.71%  44.0    4s
* 9318  1950              74     -24.9512427  -25.37196  1.69%  42.5    4s
* 9872  1961              56     -24.9526735  -25.37196  1.68%  40.7    4s
* 9985  1961              64     -24.9549044  -25.37196  1.67%  40.3    4s
*10322  1961              56     -24.9647754  -25.37196  1.63%  39.3    4s
 10409  1879     cutoff   69       -24.96478  -25.24080  1.11%  39.0    5s
*10655  1879              56     -24.9647977  -25.24080  1.11%  38.3    5s
*10701  1879              56     -24.9650656  -25.24080  1.10%  38.2    5s
*11234  2190              57     -24.9682588  -25.19362  0.90%  36.6    5s
*11249  2190              59     -24.9711427  -25.19362  0.89%  36.6    5s
*11250  2190              59     -24.9711434  -25.19362  0.89%  36.6    5s
*11314  2190              64     -24.9711972  -25.19362  0.89%  36.4    5s
*11969   783              51     -24.9712746  -25.12581  0.62%  34.8    5s
*11971   783              52     -24.9713034  -25.12581  0.62%  34.8    5s
*12616   783              65     -24.9713404  -25.12581  0.62%  33.0    5s
*12637   783              57     -24.9716008  -25.12581  0.62%  33.0    5s
*13268   898              59     -24.9717102  -25.08357  0.45%  31.6    5s
*13332   898              64     -24.9718248  -25.03561  0.26%  31.5    5s
*13507   898              67     -24.9718459  -25.03561  0.26%  31.1    5s
*13511   898              66     -24.9718479  -25.03561  0.26%  31.1    5s
*13541   898              64     -24.9718516  -25.03561  0.26%  31.0    5s
*13573   898              62     -24.9718951  -25.03561  0.26%  31.0    5s
*13626   898              61     -24.9718967  -25.03561  0.26%  30.8    5s
*13629   898              63     -24.9718969  -25.03561  0.26%  30.8    5s
*13976   257              60     -24.9719045  -24.99897  0.11%  30.2    5s
*14401   257              57     -24.9719137  -24.97373  0.01%  29.3    5s
*14443   257              58     -24.9719226  -24.97373  0.01%  29.2    5s
*14446   257              58     -24.9719227  -24.97373  0.01%  29.2    5s

Explored 14726 nodes (422940 simplex iterations) in 5.43 seconds
Thread count was 32 (of 72 available processors)

Solution count 10: -24.9719 -24.9719 -24.9719 ... -24.9716

Optimal solution found (tolerance 1.00e-04)
Best objective -2.497192266314e+01, best bound -2.497373088291e+01, gap 0.0072%

User-callback calls 30294, time in user-callback 0.01 sec



objective value: -24.971922663140248
objective bound: -24.973730882907567
x_opt: [0.0, 1.0, 1.0, 0.0, 0.0, 0.0, 1.0, 1.0, 0.0, 0.0, 0.12943182815589085, 0.31913158240938616, 0.0, 1.0, 1.0, 1.0, 0.0, 1.0, 0.0, 0.0, 0.0, 1.0, 1.0, 1.0, 0.0, 1.0, 1.0, 1.0, 0.0, 0.7601596236527215, 0.8774489874413033, 0.6976949996303736, 0.0, 0.30092730393085454, 1.0, 1.0, 1.0, 0.9999872330136029, 0.640599807295849, 1.0, 0.9732549914024893, 0.45811869192288157, 1.0, 0.0, 0.0, 0.7772040280824409, 0.0, 0.0, 0.0, 1.0]
GUROBI solution time: 5.430485010147095

